Route #1: 2 4 18 26 47 25 40 48 34
Route #2: 7 5
Route #3: 19 29 28 32 14
Route #4: 3 13 10 23 46 22 38
Route #5: 35 41 45 39 15
Route #6: 8 17 42 21 1
Route #7: 36 43 11 16 24 49 9 33 12
Route #8: 6 31 30 20 27 37 44
Cost 1343